c This Formula is generated by mcnf
c
c    horn? no 
c    forced? no 
c    mixed sat? no 
c    clause length = 3 
c
p cnf 6 7
-1 2 0
-2 0
-3 4 0
3 -5 0
3 4 0
3 5 0
-2 -5 6 0


int v = 0;	CNF S;

	v = Choose_1(F);//第一个选取策略
	Copy(S, F);
	if (DPLL(F, v))//在第一分支中搜索 
	{
		DeleteCNF(S);
		return TRUE;
	}
	DeleteCNF(F);
	F = S;
	if (v <= F.LitNum)
	{
		v = -v;
	}
	else
	{
		v -= F.LitNum;
	}
	return DPLL(F, v); //回溯到对v执行分支策略的初态进入另一分支